(set-info :smt-lib-version 2.6)
(set-logic UF)
(set-info :source |Benchmarks from the paper: "Extending Sledgehammer with SMT Solvers" by Jasmin Blanchette, Sascha Bohme, and Lawrence C. Paulson, CADE 2011.  Translated to SMT2 by Andrew Reynolds and Morgan Deters.|)
(set-info :category "industrial")
(set-info :status unknown)
(declare-sort S1 0)
(declare-sort S2 0)
(declare-sort S3 0)
(declare-sort S4 0)
(declare-sort S5 0)
(declare-sort S6 0)
(declare-sort S7 0)
(declare-sort S8 0)
(declare-sort S9 0)
(declare-sort S10 0)
(declare-sort S11 0)
(declare-sort S12 0)
(declare-sort S13 0)
(declare-sort S14 0)
(declare-sort S15 0)
(declare-sort S16 0)
(declare-sort S17 0)
(declare-sort S18 0)
(declare-sort S19 0)
(declare-sort S20 0)
(declare-sort S21 0)
(declare-sort S22 0)
(declare-sort S23 0)
(declare-sort S24 0)
(declare-sort S25 0)
(declare-sort S26 0)
(declare-sort S27 0)
(declare-sort S28 0)
(declare-sort S29 0)
(declare-sort S30 0)
(declare-fun f1 () S1)
(declare-fun f2 () S1)
(declare-fun f3 (S4 S3) S1)
(declare-fun f4 (S2) S4)
(declare-fun f5 (S2 S3) S5)
(declare-fun f6 () S5)
(declare-fun f7 (S8 S7) S1)
(declare-fun f8 (S6) S8)
(declare-fun f9 (S6 S7) S9)
(declare-fun f10 () S9)
(declare-fun f11 (S10) S8)
(declare-fun f12 (S10 S7) S5)
(declare-fun f13 () S6)
(declare-fun f14 (S11 S5) S1)
(declare-fun f15 (S12 S11) S11)
(declare-fun f16 (S13 S14) S12)
(declare-fun f17 (S15 S7) S13)
(declare-fun f18 () S15)
(declare-fun f19 () S7)
(declare-fun f20 () S14)
(declare-fun f21 (S16 S11) S12)
(declare-fun f22 () S16)
(declare-fun f23 (S17 S7) S12)
(declare-fun f24 () S17)
(declare-fun f25 (S18 S19) S11)
(declare-fun f26 () S18)
(declare-fun f27 () S19)
(declare-fun f28 () S11)
(declare-fun f29 (S20 S8) S5)
(declare-fun f30 () S20)
(declare-fun f31 (S6) S8)
(declare-fun f32 (S21 S9) S6)
(declare-fun f33 (S22 S7) S21)
(declare-fun f34 (S23 S6) S22)
(declare-fun f35 () S23)
(declare-fun f36 () S6)
(declare-fun f37 () S6)
(declare-fun f38 (S3 S4) S1)
(declare-fun f39 (S24 S25) S3)
(declare-fun f40 (S26 S25) S24)
(declare-fun f41 () S26)
(declare-fun f42 (S11 S27) S25)
(declare-fun f43 () S11)
(declare-fun f44 (S28 S6) S27)
(declare-fun f45 () S28)
(declare-fun f46 () S28)
(declare-fun f47 (S29) S4)
(declare-fun f48 () S29)
(declare-fun f49 (S30 S19) S9)
(declare-fun f50 () S30)
(declare-fun f51 (S7 S11) S1)
(declare-fun f52 (S7 S8) S1)
(declare-fun f53 (S10) S8)
(declare-fun f54 (S2) S4)
(declare-fun f55 (S8) S8)
(declare-fun f56 (S4) S4)
(assert (not (= f1 f2)))
(assert (forall ((?v0 S2) (?v1 S3)) (= (= (f3 (f4 ?v0) ?v1) f1) (not (= (f5 ?v0 ?v1) f6)))))
(assert (forall ((?v0 S6) (?v1 S7)) (= (= (f7 (f8 ?v0) ?v1) f1) (not (= (f9 ?v0 ?v1) f10)))))
(assert (forall ((?v0 S10) (?v1 S7)) (= (= (f7 (f11 ?v0) ?v1) f1) (not (= (f12 ?v0 ?v1) f6)))))
(assert (forall ((?v0 S7)) (= (f9 f13 ?v0) f10)))
(assert (not (= (f14 (f15 (f16 (f17 f18 f19) f20) (f15 (f21 f22 (f15 (f23 f24 f19) (f25 f26 f27))) f28)) (f29 f30 (f31 (f32 (f33 (f34 f35 f36) f19) (f9 f37 f19))))) f1)))
(assert (= (f38 (f39 (f40 f41 (f42 f43 (f44 f45 (f32 (f33 (f34 f35 f37) f19) f10)))) (f42 f28 (f44 f46 f36))) (f47 f48)) f1))
(assert (=> (= (f14 f43 (f29 f30 (f31 (f32 (f33 (f34 f35 f37) f19) f10)))) f1) (= (f14 f28 (f29 f30 (f31 f36))) f1)))
(assert (= (f9 f36 f19) (f49 f50 f27)))
(assert (not (= (f51 f19 f43) f1)))
(assert (= (f14 (f15 (f16 (f17 f18 f19) f20) f43) (f29 f30 (f31 f37))) f1))
(assert (not (= (f51 f19 f43) f1)))
(assert (= (f9 f36 f19) (f49 f50 f27)))
(assert (= (f14 (f15 (f16 (f17 f18 f19) f20) f43) (f29 f30 (f31 f37))) f1))
(assert (=> (= (f14 f43 (f29 f30 (f31 (f32 (f33 (f34 f35 f37) f19) f10)))) f1) (= (f14 f28 (f29 f30 (f31 f36))) f1)))
(assert (= (f38 (f39 (f40 f41 (f42 f43 (f44 f45 (f32 (f33 (f34 f35 f37) f19) f10)))) (f42 f28 (f44 f46 f36))) (f47 f48)) f1))
(assert (forall ((?v0 S6) (?v1 S7)) (= (f32 (f33 (f34 f35 ?v0) ?v1) (f9 ?v0 ?v1)) ?v0)))
(assert (forall ((?v0 S7) (?v1 S11) (?v2 S5)) (= (= (f14 (f15 (f23 f24 ?v0) ?v1) ?v2) f1) (= (f14 ?v1 ?v2) f1))))
(assert (forall ((?v0 S11) (?v1 S11) (?v2 S7) (?v3 S14) (?v4 S11)) (not (= (f15 (f21 f22 ?v0) ?v1) (f15 (f16 (f17 f18 ?v2) ?v3) ?v4)))))
(assert (forall ((?v0 S7) (?v1 S11) (?v2 S7) (?v3 S14) (?v4 S11)) (not (= (f15 (f23 f24 ?v0) ?v1) (f15 (f16 (f17 f18 ?v2) ?v3) ?v4)))))
(assert (forall ((?v0 S7) (?v1 S14) (?v2 S11) (?v3 S11) (?v4 S11)) (not (= (f15 (f16 (f17 f18 ?v0) ?v1) ?v2) (f15 (f21 f22 ?v3) ?v4)))))
(assert (forall ((?v0 S7) (?v1 S14) (?v2 S11) (?v3 S7) (?v4 S11)) (not (= (f15 (f16 (f17 f18 ?v0) ?v1) ?v2) (f15 (f23 f24 ?v3) ?v4)))))
(assert (forall ((?v0 S11) (?v1 S11) (?v2 S7) (?v3 S11)) (not (= (f15 (f21 f22 ?v0) ?v1) (f15 (f23 f24 ?v2) ?v3)))))
(assert (forall ((?v0 S7) (?v1 S11) (?v2 S11) (?v3 S11)) (not (= (f15 (f23 f24 ?v0) ?v1) (f15 (f21 f22 ?v2) ?v3)))))
(assert (forall ((?v0 S19) (?v1 S5)) (= (= (f14 (f25 f26 ?v0) ?v1) f1) true)))
(assert (forall ((?v0 S6) (?v1 S7) (?v2 S19)) (=> (= (f9 ?v0 ?v1) (f49 f50 ?v2)) (= (f52 ?v1 (f31 ?v0)) f1))))
(assert (forall ((?v0 S10) (?v1 S7) (?v2 S8)) (=> (= (f12 ?v0 ?v1) (f29 f30 ?v2)) (= (f52 ?v1 (f53 ?v0)) f1))))
(assert (forall ((?v0 S2) (?v1 S3) (?v2 S8)) (=> (= (f5 ?v0 ?v1) (f29 f30 ?v2)) (= (f38 ?v1 (f54 ?v0)) f1))))
(assert (forall ((?v0 S19) (?v1 S7) (?v2 S14) (?v3 S11)) (not (= (f25 f26 ?v0) (f15 (f16 (f17 f18 ?v1) ?v2) ?v3)))))
(assert (forall ((?v0 S7) (?v1 S6)) (= (= (f52 ?v0 (f31 ?v1)) f1) (not (= (f9 ?v1 ?v0) f10)))))
(assert (forall ((?v0 S3) (?v1 S2)) (= (= (f38 ?v0 (f54 ?v1)) f1) (not (= (f5 ?v1 ?v0) f6)))))
(assert (forall ((?v0 S7) (?v1 S10)) (= (= (f52 ?v0 (f53 ?v1)) f1) (not (= (f12 ?v1 ?v0) f6)))))
(assert (forall ((?v0 S6)) (= (f31 ?v0) (f55 (f8 ?v0)))))
(assert (forall ((?v0 S2)) (= (f54 ?v0) (f56 (f4 ?v0)))))
(assert (forall ((?v0 S10)) (= (f53 ?v0) (f55 (f11 ?v0)))))
(assert (forall ((?v0 S7) (?v1 S7)) (= (f9 (f32 (f33 (f34 f35 f13) ?v0) f10) ?v1) f10)))
(assert (forall ((?v0 S19) (?v1 S19)) (= (= (f25 f26 ?v0) (f25 f26 ?v1)) (= ?v0 ?v1))))
(assert (forall ((?v0 S6) (?v1 S7) (?v2 S9) (?v3 S7)) (= (f9 (f32 (f33 (f34 f35 ?v0) ?v1) ?v2) ?v3) (ite (= ?v3 ?v1) ?v2 (f9 ?v0 ?v3)))))
(assert (forall ((?v0 S6) (?v1 S7) (?v2 S9)) (=> (= (f9 ?v0 ?v1) ?v2) (= (f32 (f33 (f34 f35 ?v0) ?v1) ?v2) ?v0))))
(assert (forall ((?v0 S7) (?v1 S7) (?v2 S6) (?v3 S9)) (=> (not (= ?v0 ?v1)) (= (f9 (f32 (f33 (f34 f35 ?v2) ?v1) ?v3) ?v0) (f9 ?v2 ?v0)))))
(assert (forall ((?v0 S7) (?v1 S7) (?v2 S6) (?v3 S9) (?v4 S9)) (let ((?v_0 (f34 f35 ?v2))) (=> (not (= ?v0 ?v1)) (= (f32 (f33 (f34 f35 (f32 (f33 ?v_0 ?v0) ?v3)) ?v1) ?v4) (f32 (f33 (f34 f35 (f32 (f33 ?v_0 ?v1) ?v4)) ?v0) ?v3))))))
(assert (forall ((?v0 S6) (?v1 S7) (?v2 S9) (?v3 S7)) (= (f9 (f32 (f33 (f34 f35 ?v0) ?v1) ?v2) ?v3) (ite (= ?v3 ?v1) ?v2 (f9 ?v0 ?v3)))))
(assert (forall ((?v0 S6) (?v1 S7) (?v2 S9)) (= (f9 (f32 (f33 (f34 f35 ?v0) ?v1) ?v2) ?v1) ?v2)))
(assert (forall ((?v0 S6) (?v1 S7) (?v2 S9) (?v3 S9)) (let ((?v_0 (f33 (f34 f35 ?v0) ?v1))) (= (f32 (f33 (f34 f35 (f32 ?v_0 ?v2)) ?v1) ?v3) (f32 ?v_0 ?v3)))))
(assert (forall ((?v0 S6) (?v1 S7) (?v2 S9)) (= (= (f32 (f33 (f34 f35 ?v0) ?v1) ?v2) ?v0) (= (f9 ?v0 ?v1) ?v2))))
(assert (forall ((?v0 S6) (?v1 S7) (?v2 S19)) (not (= (f32 (f33 (f34 f35 ?v0) ?v1) (f49 f50 ?v2)) f13))))
(assert (forall ((?v0 S7) (?v1 S11) (?v2 S7) (?v3 S11)) (= (= (f15 (f23 f24 ?v0) ?v1) (f15 (f23 f24 ?v2) ?v3)) (and (= ?v0 ?v2) (= ?v1 ?v3)))))
(assert (forall ((?v0 S11) (?v1 S11) (?v2 S11) (?v3 S11)) (= (= (f15 (f21 f22 ?v0) ?v1) (f15 (f21 f22 ?v2) ?v3)) (and (= ?v0 ?v2) (= ?v1 ?v3)))))
(assert (forall ((?v0 S7) (?v1 S14) (?v2 S11) (?v3 S7) (?v4 S14) (?v5 S11)) (= (= (f15 (f16 (f17 f18 ?v0) ?v1) ?v2) (f15 (f16 (f17 f18 ?v3) ?v4) ?v5)) (and (= ?v0 ?v3) (and (= ?v1 ?v4) (= ?v2 ?v5))))))
(check-sat)
(exit)
